instances/p1/p1_4_8-3.txt
{
	"num_strings": 4,
	"alphabet": "ACGT",
	"strings": [
		"AAAAACCA",
		"ACGAAAAA",
		"CAAACCAC",
		"AAACCCAA"
	],
	"str_length":[8,8,8,8]
}